(declare-fun a () Real)
(declare-fun b () Real)
(declare-fun c () Real)
(declare-fun s () Real)
(declare-fun p () Real)
(declare-fun x () Real)
(declare-fun y () Real)
(assert (> a 0))
(assert (> b 0))
(assert (> c 0))
(assert (> (+ a b) c))
(assert (> (+ a c) b))
(assert (> (+ b c) a))
(assert (= p (/ (+ a b c) 2)))
(assert (= (* s s) (* p (- p a) (- p b) (- p c))))
(assert (= x (+ (* a a) (* b b) (* c c))))
(assert (= (* y y) (* 48 s s)))
(minimize (- x y))
(check-sat)
(get-objectives)
